\ LP format - for model browsing. Use MPS format to capture full model detail.
Minimize
  y + 0 r3 + 0 r17
Subject To
 c1: x1 + 6 r1 <= 9
 c2: - y + y1 <= -7
 c3: x2 + 11 r2 <= 9
 c4: - y + y2 <= -12
 c5: x3 <= 9
 c6: - y + y3 <= -1
 c7: x4 + 10 r4 <= 9
 c8: - y + y4 <= -11
 c9: x5 + 9 r5 <= 9
 c10: - y + y5 <= -10
 c11: x6 + 6 r6 <= 9
 c12: - y + y6 <= -7
 c13: x7 + 10 r7 <= 9
 c14: - y + y7 <= -11
 c15: x8 + 6 r8 <= 9
 c16: - y + y8 <= -7
 c17: x9 + 4 r9 <= 9
 c18: - y + y9 <= -5
 c19: x10 + 3 r10 <= 9
 c20: - y + y10 <= -4
 c21: x11 + r11 <= 9
 c22: - y + y11 <= -2
 c23: x12 + 14 r12 <= 9
 c24: - y + y12 <= -15
 c25: x13 - r13 <= 8
 c26: - y + y13 <= -1
 c27: x14 + 14 r14 <= 9
 c28: - y + y14 <= -15
 c29: x15 + 4 r15 <= 8
 c30: - y + y15 <= -6
 c31: x16 + 12 r16 <= 9
 c32: - y + y16 <= -13
 c33: x17 <= 7
 c34: - y + y17 <= -3
 c35: x18 + r18 <= 9
 c36: - y + y18 <= -2
 c37: x19 + 3 r19 <= 9
 c38: - y + y19 <= -4
 c39: x1 + 6 r1 - 40 p12 - 40 q12 - x2 <= -1
 c40: - 6 r1 + y1 - 40 p12 + 40 q12 - y2 <= 33
 c41: x1 - 40 p12 + 40 q12 - x2 - 11 r2 >= -39
 c42: y1 - 40 p12 - 40 q12 + 11 r2 - y2 >= -68
 c43: x1 + 6 r1 - 40 p13 - 40 q13 - x3 <= -1
 c44: - 6 r1 + y1 - 40 p13 + 40 q13 - y3 <= 33
 c45: x1 - 40 p13 + 40 q13 - x3 >= -39
 c46: y1 - 40 p13 - 40 q13 - y3 >= -79
 c47: x1 + 6 r1 - 40 p14 - 40 q14 - x4 <= -1
 c48: - 6 r1 + y1 - 40 p14 + 40 q14 - y4 <= 33
 c49: x1 - 40 p14 + 40 q14 - x4 - 10 r4 >= -39
 c50: y1 - 40 p14 - 40 q14 + 10 r4 - y4 >= -69
 c51: x1 + 6 r1 - 40 p15 - 40 q15 - x5 <= -1
 c52: - 6 r1 + y1 - 40 p15 + 40 q15 - y5 <= 33
 c53: x1 - 40 p15 + 40 q15 - x5 - 9 r5 >= -39
 c54: y1 - 40 p15 - 40 q15 + 9 r5 - y5 >= -70
 c55: x1 + 6 r1 - 40 p16 - 40 q16 - x6 <= -1
 c56: - 6 r1 + y1 - 40 p16 + 40 q16 - y6 <= 33
 c57: x1 - 40 p16 + 40 q16 - x6 - 6 r6 >= -39
 c58: y1 - 40 p16 - 40 q16 + 6 r6 - y6 >= -73
 c59: x1 + 6 r1 - 40 p17 - 40 q17 - x7 <= -1
 c60: - 6 r1 + y1 - 40 p17 + 40 q17 - y7 <= 33
 c61: x1 - 40 p17 + 40 q17 - x7 - 10 r7 >= -39
 c62: y1 - 40 p17 - 40 q17 + 10 r7 - y7 >= -69
 c63: x1 + 6 r1 - 40 p18 - 40 q18 - x8 <= -1
 c64: - 6 r1 + y1 - 40 p18 + 40 q18 - y8 <= 33
 c65: x1 - 40 p18 + 40 q18 - x8 - 6 r8 >= -39
 c66: y1 - 40 p18 - 40 q18 + 6 r8 - y8 >= -73
 c67: x1 + 6 r1 - 40 p19 - 40 q19 - x9 <= -1
 c68: - 6 r1 + y1 - 40 p19 + 40 q19 - y9 <= 33
 c69: x1 - 40 p19 + 40 q19 - x9 - 4 r9 >= -39
 c70: y1 - 40 p19 - 40 q19 + 4 r9 - y9 >= -75
 c71: x1 + 6 r1 - 40 p110 - 40 q110 - x10 <= -1
 c72: - 6 r1 + y1 - 40 p110 + 40 q110 - y10 <= 33
 c73: x1 - 40 p110 + 40 q110 - x10 - 3 r10 >= -39
 c74: y1 - 40 p110 - 40 q110 + 3 r10 - y10 >= -76
 c75: x1 + 6 r1 - 40 p111 - 40 q111 - x11 <= -1
 c76: - 6 r1 + y1 - 40 p111 + 40 q111 - y11 <= 33
 c77: x1 - 40 p111 + 40 q111 - x11 - r11 >= -39
 c78: y1 - 40 p111 - 40 q111 + r11 - y11 >= -78
 c79: x1 + 6 r1 - 40 p112 - 40 q112 - x12 <= -1
 c80: - 6 r1 + y1 - 40 p112 + 40 q112 - y12 <= 33
 c81: x1 - 40 p112 + 40 q112 - x12 - 14 r12 >= -39
 c82: y1 - 40 p112 - 40 q112 + 14 r12 - y12 >= -65
 c83: x1 + 6 r1 - 40 p113 - 40 q113 - x13 <= -1
 c84: - 6 r1 + y1 - 40 p113 + 40 q113 - y13 <= 33
 c85: x1 - 40 p113 + 40 q113 - x13 + r13 >= -38
 c86: y1 - 40 p113 - 40 q113 - r13 - y13 >= -79
 c87: x1 + 6 r1 - 40 p114 - 40 q114 - x14 <= -1
 c88: - 6 r1 + y1 - 40 p114 + 40 q114 - y14 <= 33
 c89: x1 - 40 p114 + 40 q114 - x14 - 14 r14 >= -39
 c90: y1 - 40 p114 - 40 q114 + 14 r14 - y14 >= -65
 c91: x1 + 6 r1 - 40 p115 - 40 q115 - x15 <= -1
 c92: - 6 r1 + y1 - 40 p115 + 40 q115 - y15 <= 33
 c93: x1 - 40 p115 + 40 q115 - x15 - 4 r15 >= -38
 c94: y1 - 40 p115 - 40 q115 + 4 r15 - y15 >= -74
 c95: x1 + 6 r1 - 40 p116 - 40 q116 - x16 <= -1
 c96: - 6 r1 + y1 - 40 p116 + 40 q116 - y16 <= 33
 c97: x1 - 40 p116 + 40 q116 - x16 - 12 r16 >= -39
 c98: y1 - 40 p116 - 40 q116 + 12 r16 - y16 >= -67
 c99: x1 + 6 r1 - 40 p117 - 40 q117 - x17 <= -1
 c100: - 6 r1 + y1 - 40 p117 + 40 q117 - y17 <= 33
 c101: x1 - 40 p117 + 40 q117 - x17 >= -37
 c102: y1 - 40 p117 - 40 q117 - y17 >= -77
 c103: x1 + 6 r1 - 40 p118 - 40 q118 - x18 <= -1
 c104: - 6 r1 + y1 - 40 p118 + 40 q118 - y18 <= 33
 c105: x1 - 40 p118 + 40 q118 - x18 - r18 >= -39
 c106: y1 - 40 p118 - 40 q118 + r18 - y18 >= -78
 c107: x1 + 6 r1 - 40 p119 - 40 q119 - x19 <= -1
 c108: - 6 r1 + y1 - 40 p119 + 40 q119 - y19 <= 33
 c109: x1 - 40 p119 + 40 q119 - x19 - 3 r19 >= -39
 c110: y1 - 40 p119 - 40 q119 + 3 r19 - y19 >= -76
 c111: x2 + 11 r2 - 40 p23 - 40 q23 - x3 <= -1
 c112: - 11 r2 + y2 - 40 p23 + 40 q23 - y3 <= 28
 c113: x2 - 40 p23 + 40 q23 - x3 >= -39
 c114: y2 - 40 p23 - 40 q23 - y3 >= -79
 c115: x2 + 11 r2 - 40 p24 - 40 q24 - x4 <= -1
 c116: - 11 r2 + y2 - 40 p24 + 40 q24 - y4 <= 28
 c117: x2 - 40 p24 + 40 q24 - x4 - 10 r4 >= -39
 c118: y2 - 40 p24 - 40 q24 + 10 r4 - y4 >= -69
 c119: x2 + 11 r2 - 40 p25 - 40 q25 - x5 <= -1
 c120: - 11 r2 + y2 - 40 p25 + 40 q25 - y5 <= 28
 c121: x2 - 40 p25 + 40 q25 - x5 - 9 r5 >= -39
 c122: y2 - 40 p25 - 40 q25 + 9 r5 - y5 >= -70
 c123: x2 + 11 r2 - 40 p26 - 40 q26 - x6 <= -1
 c124: - 11 r2 + y2 - 40 p26 + 40 q26 - y6 <= 28
 c125: x2 - 40 p26 + 40 q26 - x6 - 6 r6 >= -39
 c126: y2 - 40 p26 - 40 q26 + 6 r6 - y6 >= -73
 c127: x2 + 11 r2 - 40 p27 - 40 q27 - x7 <= -1
 c128: - 11 r2 + y2 - 40 p27 + 40 q27 - y7 <= 28
 c129: x2 - 40 p27 + 40 q27 - x7 - 10 r7 >= -39
 c130: y2 - 40 p27 - 40 q27 + 10 r7 - y7 >= -69
 c131: x2 + 11 r2 - 40 p28 - 40 q28 - x8 <= -1
 c132: - 11 r2 + y2 - 40 p28 + 40 q28 - y8 <= 28
 c133: x2 - 40 p28 + 40 q28 - x8 - 6 r8 >= -39
 c134: y2 - 40 p28 - 40 q28 + 6 r8 - y8 >= -73
 c135: x2 + 11 r2 - 40 p29 - 40 q29 - x9 <= -1
 c136: - 11 r2 + y2 - 40 p29 + 40 q29 - y9 <= 28
 c137: x2 - 40 p29 + 40 q29 - x9 - 4 r9 >= -39
 c138: y2 - 40 p29 - 40 q29 + 4 r9 - y9 >= -75
 c139: x2 + 11 r2 - 40 p210 - 40 q210 - x10 <= -1
 c140: - 11 r2 + y2 - 40 p210 + 40 q210 - y10 <= 28
 c141: x2 - 40 p210 + 40 q210 - x10 - 3 r10 >= -39
 c142: y2 - 40 p210 - 40 q210 + 3 r10 - y10 >= -76
 c143: x2 + 11 r2 - 40 p211 - 40 q211 - x11 <= -1
 c144: - 11 r2 + y2 - 40 p211 + 40 q211 - y11 <= 28
 c145: x2 - 40 p211 + 40 q211 - x11 - r11 >= -39
 c146: y2 - 40 p211 - 40 q211 + r11 - y11 >= -78
 c147: x2 + 11 r2 - 40 p212 - 40 q212 - x12 <= -1
 c148: - 11 r2 + y2 - 40 p212 + 40 q212 - y12 <= 28
 c149: x2 - 40 p212 + 40 q212 - x12 - 14 r12 >= -39
 c150: y2 - 40 p212 - 40 q212 + 14 r12 - y12 >= -65
 c151: x2 + 11 r2 - 40 p213 - 40 q213 - x13 <= -1
 c152: - 11 r2 + y2 - 40 p213 + 40 q213 - y13 <= 28
 c153: x2 - 40 p213 + 40 q213 - x13 + r13 >= -38
 c154: y2 - 40 p213 - 40 q213 - r13 - y13 >= -79
 c155: x2 + 11 r2 - 40 p214 - 40 q214 - x14 <= -1
 c156: - 11 r2 + y2 - 40 p214 + 40 q214 - y14 <= 28
 c157: x2 - 40 p214 + 40 q214 - x14 - 14 r14 >= -39
 c158: y2 - 40 p214 - 40 q214 + 14 r14 - y14 >= -65
 c159: x2 + 11 r2 - 40 p215 - 40 q215 - x15 <= -1
 c160: - 11 r2 + y2 - 40 p215 + 40 q215 - y15 <= 28
 c161: x2 - 40 p215 + 40 q215 - x15 - 4 r15 >= -38
 c162: y2 - 40 p215 - 40 q215 + 4 r15 - y15 >= -74
 c163: x2 + 11 r2 - 40 p216 - 40 q216 - x16 <= -1
 c164: - 11 r2 + y2 - 40 p216 + 40 q216 - y16 <= 28
 c165: x2 - 40 p216 + 40 q216 - x16 - 12 r16 >= -39
 c166: y2 - 40 p216 - 40 q216 + 12 r16 - y16 >= -67
 c167: x2 + 11 r2 - 40 p217 - 40 q217 - x17 <= -1
 c168: - 11 r2 + y2 - 40 p217 + 40 q217 - y17 <= 28
 c169: x2 - 40 p217 + 40 q217 - x17 >= -37
 c170: y2 - 40 p217 - 40 q217 - y17 >= -77
 c171: x2 + 11 r2 - 40 p218 - 40 q218 - x18 <= -1
 c172: - 11 r2 + y2 - 40 p218 + 40 q218 - y18 <= 28
 c173: x2 - 40 p218 + 40 q218 - x18 - r18 >= -39
 c174: y2 - 40 p218 - 40 q218 + r18 - y18 >= -78
 c175: x2 + 11 r2 - 40 p219 - 40 q219 - x19 <= -1
 c176: - 11 r2 + y2 - 40 p219 + 40 q219 - y19 <= 28
 c177: x2 - 40 p219 + 40 q219 - x19 - 3 r19 >= -39
 c178: y2 - 40 p219 - 40 q219 + 3 r19 - y19 >= -76
 c179: x3 - 40 p34 - 40 q34 - x4 <= -1
 c180: y3 - 40 p34 + 40 q34 - y4 <= 39
 c181: x3 - 40 p34 + 40 q34 - x4 - 10 r4 >= -39
 c182: y3 - 40 p34 - 40 q34 + 10 r4 - y4 >= -69
 c183: x3 - 40 p35 - 40 q35 - x5 <= -1
 c184: y3 - 40 p35 + 40 q35 - y5 <= 39
 c185: x3 - 40 p35 + 40 q35 - x5 - 9 r5 >= -39
 c186: y3 - 40 p35 - 40 q35 + 9 r5 - y5 >= -70
 c187: x3 - 40 p36 - 40 q36 - x6 <= -1
 c188: y3 - 40 p36 + 40 q36 - y6 <= 39
 c189: x3 - 40 p36 + 40 q36 - x6 - 6 r6 >= -39
 c190: y3 - 40 p36 - 40 q36 + 6 r6 - y6 >= -73
 c191: x3 - 40 p37 - 40 q37 - x7 <= -1
 c192: y3 - 40 p37 + 40 q37 - y7 <= 39
 c193: x3 - 40 p37 + 40 q37 - x7 - 10 r7 >= -39
 c194: y3 - 40 p37 - 40 q37 + 10 r7 - y7 >= -69
 c195: x3 - 40 p38 - 40 q38 - x8 <= -1
 c196: y3 - 40 p38 + 40 q38 - y8 <= 39
 c197: x3 - 40 p38 + 40 q38 - x8 - 6 r8 >= -39
 c198: y3 - 40 p38 - 40 q38 + 6 r8 - y8 >= -73
 c199: x3 - 40 p39 - 40 q39 - x9 <= -1
 c200: y3 - 40 p39 + 40 q39 - y9 <= 39
 c201: x3 - 40 p39 + 40 q39 - x9 - 4 r9 >= -39
 c202: y3 - 40 p39 - 40 q39 + 4 r9 - y9 >= -75
 c203: x3 - 40 p310 - 40 q310 - x10 <= -1
 c204: y3 - 40 p310 + 40 q310 - y10 <= 39
 c205: x3 - 40 p310 + 40 q310 - x10 - 3 r10 >= -39
 c206: y3 - 40 p310 - 40 q310 + 3 r10 - y10 >= -76
 c207: x3 - 40 p311 - 40 q311 - x11 <= -1
 c208: y3 - 40 p311 + 40 q311 - y11 <= 39
 c209: x3 - 40 p311 + 40 q311 - x11 - r11 >= -39
 c210: y3 - 40 p311 - 40 q311 + r11 - y11 >= -78
 c211: x3 - 40 p312 - 40 q312 - x12 <= -1
 c212: y3 - 40 p312 + 40 q312 - y12 <= 39
 c213: x3 - 40 p312 + 40 q312 - x12 - 14 r12 >= -39
 c214: y3 - 40 p312 - 40 q312 + 14 r12 - y12 >= -65
 c215: x3 - 40 p313 - 40 q313 - x13 <= -1
 c216: y3 - 40 p313 + 40 q313 - y13 <= 39
 c217: x3 - 40 p313 + 40 q313 - x13 + r13 >= -38
 c218: y3 - 40 p313 - 40 q313 - r13 - y13 >= -79
 c219: x3 - 40 p314 - 40 q314 - x14 <= -1
 c220: y3 - 40 p314 + 40 q314 - y14 <= 39
 c221: x3 - 40 p314 + 40 q314 - x14 - 14 r14 >= -39
 c222: y3 - 40 p314 - 40 q314 + 14 r14 - y14 >= -65
 c223: x3 - 40 p315 - 40 q315 - x15 <= -1
 c224: y3 - 40 p315 + 40 q315 - y15 <= 39
 c225: x3 - 40 p315 + 40 q315 - x15 - 4 r15 >= -38
 c226: y3 - 40 p315 - 40 q315 + 4 r15 - y15 >= -74
 c227: x3 - 40 p316 - 40 q316 - x16 <= -1
 c228: y3 - 40 p316 + 40 q316 - y16 <= 39
 c229: x3 - 40 p316 + 40 q316 - x16 - 12 r16 >= -39
 c230: y3 - 40 p316 - 40 q316 + 12 r16 - y16 >= -67
 c231: x3 - 40 p317 - 40 q317 - x17 <= -1
 c232: y3 - 40 p317 + 40 q317 - y17 <= 39
 c233: x3 - 40 p317 + 40 q317 - x17 >= -37
 c234: y3 - 40 p317 - 40 q317 - y17 >= -77
 c235: x3 - 40 p318 - 40 q318 - x18 <= -1
 c236: y3 - 40 p318 + 40 q318 - y18 <= 39
 c237: x3 - 40 p318 + 40 q318 - x18 - r18 >= -39
 c238: y3 - 40 p318 - 40 q318 + r18 - y18 >= -78
 c239: x3 - 40 p319 - 40 q319 - x19 <= -1
 c240: y3 - 40 p319 + 40 q319 - y19 <= 39
 c241: x3 - 40 p319 + 40 q319 - x19 - 3 r19 >= -39
 c242: y3 - 40 p319 - 40 q319 + 3 r19 - y19 >= -76
 c243: x4 + 10 r4 - 40 p45 - 40 q45 - x5 <= -1
 c244: - 10 r4 + y4 - 40 p45 + 40 q45 - y5 <= 29
 c245: x4 - 40 p45 + 40 q45 - x5 - 9 r5 >= -39
 c246: y4 - 40 p45 - 40 q45 + 9 r5 - y5 >= -70
 c247: x4 + 10 r4 - 40 p46 - 40 q46 - x6 <= -1
 c248: - 10 r4 + y4 - 40 p46 + 40 q46 - y6 <= 29
 c249: x4 - 40 p46 + 40 q46 - x6 - 6 r6 >= -39
 c250: y4 - 40 p46 - 40 q46 + 6 r6 - y6 >= -73
 c251: x4 + 10 r4 - 40 p47 - 40 q47 - x7 <= -1
 c252: - 10 r4 + y4 - 40 p47 + 40 q47 - y7 <= 29
 c253: x4 - 40 p47 + 40 q47 - x7 - 10 r7 >= -39
 c254: y4 - 40 p47 - 40 q47 + 10 r7 - y7 >= -69
 c255: x4 + 10 r4 - 40 p48 - 40 q48 - x8 <= -1
 c256: - 10 r4 + y4 - 40 p48 + 40 q48 - y8 <= 29
 c257: x4 - 40 p48 + 40 q48 - x8 - 6 r8 >= -39
 c258: y4 - 40 p48 - 40 q48 + 6 r8 - y8 >= -73
 c259: x4 + 10 r4 - 40 p49 - 40 q49 - x9 <= -1
 c260: - 10 r4 + y4 - 40 p49 + 40 q49 - y9 <= 29
 c261: x4 - 40 p49 + 40 q49 - x9 - 4 r9 >= -39
 c262: y4 - 40 p49 - 40 q49 + 4 r9 - y9 >= -75
 c263: x4 + 10 r4 - 40 p410 - 40 q410 - x10 <= -1
 c264: - 10 r4 + y4 - 40 p410 + 40 q410 - y10 <= 29
 c265: x4 - 40 p410 + 40 q410 - x10 - 3 r10 >= -39
 c266: y4 - 40 p410 - 40 q410 + 3 r10 - y10 >= -76
 c267: x4 + 10 r4 - 40 p411 - 40 q411 - x11 <= -1
 c268: - 10 r4 + y4 - 40 p411 + 40 q411 - y11 <= 29
 c269: x4 - 40 p411 + 40 q411 - x11 - r11 >= -39
 c270: y4 - 40 p411 - 40 q411 + r11 - y11 >= -78
 c271: x4 + 10 r4 - 40 p412 - 40 q412 - x12 <= -1
 c272: - 10 r4 + y4 - 40 p412 + 40 q412 - y12 <= 29
 c273: x4 - 40 p412 + 40 q412 - x12 - 14 r12 >= -39
 c274: y4 - 40 p412 - 40 q412 + 14 r12 - y12 >= -65
 c275: x4 + 10 r4 - 40 p413 - 40 q413 - x13 <= -1
 c276: - 10 r4 + y4 - 40 p413 + 40 q413 - y13 <= 29
 c277: x4 - 40 p413 + 40 q413 - x13 + r13 >= -38
 c278: y4 - 40 p413 - 40 q413 - r13 - y13 >= -79
 c279: x4 + 10 r4 - 40 p414 - 40 q414 - x14 <= -1
 c280: - 10 r4 + y4 - 40 p414 + 40 q414 - y14 <= 29
 c281: x4 - 40 p414 + 40 q414 - x14 - 14 r14 >= -39
 c282: y4 - 40 p414 - 40 q414 + 14 r14 - y14 >= -65
 c283: x4 + 10 r4 - 40 p415 - 40 q415 - x15 <= -1
 c284: - 10 r4 + y4 - 40 p415 + 40 q415 - y15 <= 29
 c285: x4 - 40 p415 + 40 q415 - x15 - 4 r15 >= -38
 c286: y4 - 40 p415 - 40 q415 + 4 r15 - y15 >= -74
 c287: x4 + 10 r4 - 40 p416 - 40 q416 - x16 <= -1
 c288: - 10 r4 + y4 - 40 p416 + 40 q416 - y16 <= 29
 c289: x4 - 40 p416 + 40 q416 - x16 - 12 r16 >= -39
 c290: y4 - 40 p416 - 40 q416 + 12 r16 - y16 >= -67
 c291: x4 + 10 r4 - 40 p417 - 40 q417 - x17 <= -1
 c292: - 10 r4 + y4 - 40 p417 + 40 q417 - y17 <= 29
 c293: x4 - 40 p417 + 40 q417 - x17 >= -37
 c294: y4 - 40 p417 - 40 q417 - y17 >= -77
 c295: x4 + 10 r4 - 40 p418 - 40 q418 - x18 <= -1
 c296: - 10 r4 + y4 - 40 p418 + 40 q418 - y18 <= 29
 c297: x4 - 40 p418 + 40 q418 - x18 - r18 >= -39
 c298: y4 - 40 p418 - 40 q418 + r18 - y18 >= -78
 c299: x4 + 10 r4 - 40 p419 - 40 q419 - x19 <= -1
 c300: - 10 r4 + y4 - 40 p419 + 40 q419 - y19 <= 29
 c301: x4 - 40 p419 + 40 q419 - x19 - 3 r19 >= -39
 c302: y4 - 40 p419 - 40 q419 + 3 r19 - y19 >= -76
 c303: x5 + 9 r5 - 40 p56 - 40 q56 - x6 <= -1
 c304: - 9 r5 + y5 - 40 p56 + 40 q56 - y6 <= 30
 c305: x5 - 40 p56 + 40 q56 - x6 - 6 r6 >= -39
 c306: y5 - 40 p56 - 40 q56 + 6 r6 - y6 >= -73
 c307: x5 + 9 r5 - 40 p57 - 40 q57 - x7 <= -1
 c308: - 9 r5 + y5 - 40 p57 + 40 q57 - y7 <= 30
 c309: x5 - 40 p57 + 40 q57 - x7 - 10 r7 >= -39
 c310: y5 - 40 p57 - 40 q57 + 10 r7 - y7 >= -69
 c311: x5 + 9 r5 - 40 p58 - 40 q58 - x8 <= -1
 c312: - 9 r5 + y5 - 40 p58 + 40 q58 - y8 <= 30
 c313: x5 - 40 p58 + 40 q58 - x8 - 6 r8 >= -39
 c314: y5 - 40 p58 - 40 q58 + 6 r8 - y8 >= -73
 c315: x5 + 9 r5 - 40 p59 - 40 q59 - x9 <= -1
 c316: - 9 r5 + y5 - 40 p59 + 40 q59 - y9 <= 30
 c317: x5 - 40 p59 + 40 q59 - x9 - 4 r9 >= -39
 c318: y5 - 40 p59 - 40 q59 + 4 r9 - y9 >= -75
 c319: x5 + 9 r5 - 40 p510 - 40 q510 - x10 <= -1
 c320: - 9 r5 + y5 - 40 p510 + 40 q510 - y10 <= 30
 c321: x5 - 40 p510 + 40 q510 - x10 - 3 r10 >= -39
 c322: y5 - 40 p510 - 40 q510 + 3 r10 - y10 >= -76
 c323: x5 + 9 r5 - 40 p511 - 40 q511 - x11 <= -1
 c324: - 9 r5 + y5 - 40 p511 + 40 q511 - y11 <= 30
 c325: x5 - 40 p511 + 40 q511 - x11 - r11 >= -39
 c326: y5 - 40 p511 - 40 q511 + r11 - y11 >= -78
 c327: x5 + 9 r5 - 40 p512 - 40 q512 - x12 <= -1
 c328: - 9 r5 + y5 - 40 p512 + 40 q512 - y12 <= 30
 c329: x5 - 40 p512 + 40 q512 - x12 - 14 r12 >= -39
 c330: y5 - 40 p512 - 40 q512 + 14 r12 - y12 >= -65
 c331: x5 + 9 r5 - 40 p513 - 40 q513 - x13 <= -1
 c332: - 9 r5 + y5 - 40 p513 + 40 q513 - y13 <= 30
 c333: x5 - 40 p513 + 40 q513 - x13 + r13 >= -38
 c334: y5 - 40 p513 - 40 q513 - r13 - y13 >= -79
 c335: x5 + 9 r5 - 40 p514 - 40 q514 - x14 <= -1
 c336: - 9 r5 + y5 - 40 p514 + 40 q514 - y14 <= 30
 c337: x5 - 40 p514 + 40 q514 - x14 - 14 r14 >= -39
 c338: y5 - 40 p514 - 40 q514 + 14 r14 - y14 >= -65
 c339: x5 + 9 r5 - 40 p515 - 40 q515 - x15 <= -1
 c340: - 9 r5 + y5 - 40 p515 + 40 q515 - y15 <= 30
 c341: x5 - 40 p515 + 40 q515 - x15 - 4 r15 >= -38
 c342: y5 - 40 p515 - 40 q515 + 4 r15 - y15 >= -74
 c343: x5 + 9 r5 - 40 p516 - 40 q516 - x16 <= -1
 c344: - 9 r5 + y5 - 40 p516 + 40 q516 - y16 <= 30
 c345: x5 - 40 p516 + 40 q516 - x16 - 12 r16 >= -39
 c346: y5 - 40 p516 - 40 q516 + 12 r16 - y16 >= -67
 c347: x5 + 9 r5 - 40 p517 - 40 q517 - x17 <= -1
 c348: - 9 r5 + y5 - 40 p517 + 40 q517 - y17 <= 30
 c349: x5 - 40 p517 + 40 q517 - x17 >= -37
 c350: y5 - 40 p517 - 40 q517 - y17 >= -77
 c351: x5 + 9 r5 - 40 p518 - 40 q518 - x18 <= -1
 c352: - 9 r5 + y5 - 40 p518 + 40 q518 - y18 <= 30
 c353: x5 - 40 p518 + 40 q518 - x18 - r18 >= -39
 c354: y5 - 40 p518 - 40 q518 + r18 - y18 >= -78
 c355: x5 + 9 r5 - 40 p519 - 40 q519 - x19 <= -1
 c356: - 9 r5 + y5 - 40 p519 + 40 q519 - y19 <= 30
 c357: x5 - 40 p519 + 40 q519 - x19 - 3 r19 >= -39
 c358: y5 - 40 p519 - 40 q519 + 3 r19 - y19 >= -76
 c359: x6 + 6 r6 - 40 p67 - 40 q67 - x7 <= -1
 c360: - 6 r6 + y6 - 40 p67 + 40 q67 - y7 <= 33
 c361: x6 - 40 p67 + 40 q67 - x7 - 10 r7 >= -39
 c362: y6 - 40 p67 - 40 q67 + 10 r7 - y7 >= -69
 c363: x6 + 6 r6 - 40 p68 - 40 q68 - x8 <= -1
 c364: - 6 r6 + y6 - 40 p68 + 40 q68 - y8 <= 33
 c365: x6 - 40 p68 + 40 q68 - x8 - 6 r8 >= -39
 c366: y6 - 40 p68 - 40 q68 + 6 r8 - y8 >= -73
 c367: x6 + 6 r6 - 40 p69 - 40 q69 - x9 <= -1
 c368: - 6 r6 + y6 - 40 p69 + 40 q69 - y9 <= 33
 c369: x6 - 40 p69 + 40 q69 - x9 - 4 r9 >= -39
 c370: y6 - 40 p69 - 40 q69 + 4 r9 - y9 >= -75
 c371: x6 + 6 r6 - 40 p610 - 40 q610 - x10 <= -1
 c372: - 6 r6 + y6 - 40 p610 + 40 q610 - y10 <= 33
 c373: x6 - 40 p610 + 40 q610 - x10 - 3 r10 >= -39
 c374: y6 - 40 p610 - 40 q610 + 3 r10 - y10 >= -76
 c375: x6 + 6 r6 - 40 p611 - 40 q611 - x11 <= -1
 c376: - 6 r6 + y6 - 40 p611 + 40 q611 - y11 <= 33
 c377: x6 - 40 p611 + 40 q611 - x11 - r11 >= -39
 c378: y6 - 40 p611 - 40 q611 + r11 - y11 >= -78
 c379: x6 + 6 r6 - 40 p612 - 40 q612 - x12 <= -1
 c380: - 6 r6 + y6 - 40 p612 + 40 q612 - y12 <= 33
 c381: x6 - 40 p612 + 40 q612 - x12 - 14 r12 >= -39
 c382: y6 - 40 p612 - 40 q612 + 14 r12 - y12 >= -65
 c383: x6 + 6 r6 - 40 p613 - 40 q613 - x13 <= -1
 c384: - 6 r6 + y6 - 40 p613 + 40 q613 - y13 <= 33
 c385: x6 - 40 p613 + 40 q613 - x13 + r13 >= -38
 c386: y6 - 40 p613 - 40 q613 - r13 - y13 >= -79
 c387: x6 + 6 r6 - 40 p614 - 40 q614 - x14 <= -1
 c388: - 6 r6 + y6 - 40 p614 + 40 q614 - y14 <= 33
 c389: x6 - 40 p614 + 40 q614 - x14 - 14 r14 >= -39
 c390: y6 - 40 p614 - 40 q614 + 14 r14 - y14 >= -65
 c391: x6 + 6 r6 - 40 p615 - 40 q615 - x15 <= -1
 c392: - 6 r6 + y6 - 40 p615 + 40 q615 - y15 <= 33
 c393: x6 - 40 p615 + 40 q615 - x15 - 4 r15 >= -38
 c394: y6 - 40 p615 - 40 q615 + 4 r15 - y15 >= -74
 c395: x6 + 6 r6 - 40 p616 - 40 q616 - x16 <= -1
 c396: - 6 r6 + y6 - 40 p616 + 40 q616 - y16 <= 33
 c397: x6 - 40 p616 + 40 q616 - x16 - 12 r16 >= -39
 c398: y6 - 40 p616 - 40 q616 + 12 r16 - y16 >= -67
 c399: x6 + 6 r6 - 40 p617 - 40 q617 - x17 <= -1
 c400: - 6 r6 + y6 - 40 p617 + 40 q617 - y17 <= 33
 c401: x6 - 40 p617 + 40 q617 - x17 >= -37
 c402: y6 - 40 p617 - 40 q617 - y17 >= -77
 c403: x6 + 6 r6 - 40 p618 - 40 q618 - x18 <= -1
 c404: - 6 r6 + y6 - 40 p618 + 40 q618 - y18 <= 33
 c405: x6 - 40 p618 + 40 q618 - x18 - r18 >= -39
 c406: y6 - 40 p618 - 40 q618 + r18 - y18 >= -78
 c407: x6 + 6 r6 - 40 p619 - 40 q619 - x19 <= -1
 c408: - 6 r6 + y6 - 40 p619 + 40 q619 - y19 <= 33
 c409: x6 - 40 p619 + 40 q619 - x19 - 3 r19 >= -39
 c410: y6 - 40 p619 - 40 q619 + 3 r19 - y19 >= -76
 c411: x7 + 10 r7 - 40 p78 - 40 q78 - x8 <= -1
 c412: - 10 r7 + y7 - 40 p78 + 40 q78 - y8 <= 29
 c413: x7 - 40 p78 + 40 q78 - x8 - 6 r8 >= -39
 c414: y7 - 40 p78 - 40 q78 + 6 r8 - y8 >= -73
 c415: x7 + 10 r7 - 40 p79 - 40 q79 - x9 <= -1
 c416: - 10 r7 + y7 - 40 p79 + 40 q79 - y9 <= 29
 c417: x7 - 40 p79 + 40 q79 - x9 - 4 r9 >= -39
 c418: y7 - 40 p79 - 40 q79 + 4 r9 - y9 >= -75
 c419: x7 + 10 r7 - 40 p710 - 40 q710 - x10 <= -1
 c420: - 10 r7 + y7 - 40 p710 + 40 q710 - y10 <= 29
 c421: x7 - 40 p710 + 40 q710 - x10 - 3 r10 >= -39
 c422: y7 - 40 p710 - 40 q710 + 3 r10 - y10 >= -76
 c423: x7 + 10 r7 - 40 p711 - 40 q711 - x11 <= -1
 c424: - 10 r7 + y7 - 40 p711 + 40 q711 - y11 <= 29
 c425: x7 - 40 p711 + 40 q711 - x11 - r11 >= -39
 c426: y7 - 40 p711 - 40 q711 + r11 - y11 >= -78
 c427: x7 + 10 r7 - 40 p712 - 40 q712 - x12 <= -1
 c428: - 10 r7 + y7 - 40 p712 + 40 q712 - y12 <= 29
 c429: x7 - 40 p712 + 40 q712 - x12 - 14 r12 >= -39
 c430: y7 - 40 p712 - 40 q712 + 14 r12 - y12 >= -65
 c431: x7 + 10 r7 - 40 p713 - 40 q713 - x13 <= -1
 c432: - 10 r7 + y7 - 40 p713 + 40 q713 - y13 <= 29
 c433: x7 - 40 p713 + 40 q713 - x13 + r13 >= -38
 c434: y7 - 40 p713 - 40 q713 - r13 - y13 >= -79
 c435: x7 + 10 r7 - 40 p714 - 40 q714 - x14 <= -1
 c436: - 10 r7 + y7 - 40 p714 + 40 q714 - y14 <= 29
 c437: x7 - 40 p714 + 40 q714 - x14 - 14 r14 >= -39
 c438: y7 - 40 p714 - 40 q714 + 14 r14 - y14 >= -65
 c439: x7 + 10 r7 - 40 p715 - 40 q715 - x15 <= -1
 c440: - 10 r7 + y7 - 40 p715 + 40 q715 - y15 <= 29
 c441: x7 - 40 p715 + 40 q715 - x15 - 4 r15 >= -38
 c442: y7 - 40 p715 - 40 q715 + 4 r15 - y15 >= -74
 c443: x7 + 10 r7 - 40 p716 - 40 q716 - x16 <= -1
 c444: - 10 r7 + y7 - 40 p716 + 40 q716 - y16 <= 29
 c445: x7 - 40 p716 + 40 q716 - x16 - 12 r16 >= -39
 c446: y7 - 40 p716 - 40 q716 + 12 r16 - y16 >= -67
 c447: x7 + 10 r7 - 40 p717 - 40 q717 - x17 <= -1
 c448: - 10 r7 + y7 - 40 p717 + 40 q717 - y17 <= 29
 c449: x7 - 40 p717 + 40 q717 - x17 >= -37
 c450: y7 - 40 p717 - 40 q717 - y17 >= -77
 c451: x7 + 10 r7 - 40 p718 - 40 q718 - x18 <= -1
 c452: - 10 r7 + y7 - 40 p718 + 40 q718 - y18 <= 29
 c453: x7 - 40 p718 + 40 q718 - x18 - r18 >= -39
 c454: y7 - 40 p718 - 40 q718 + r18 - y18 >= -78
 c455: x7 + 10 r7 - 40 p719 - 40 q719 - x19 <= -1
 c456: - 10 r7 + y7 - 40 p719 + 40 q719 - y19 <= 29
 c457: x7 - 40 p719 + 40 q719 - x19 - 3 r19 >= -39
 c458: y7 - 40 p719 - 40 q719 + 3 r19 - y19 >= -76
 c459: x8 + 6 r8 - 40 p89 - 40 q89 - x9 <= -1
 c460: - 6 r8 + y8 - 40 p89 + 40 q89 - y9 <= 33
 c461: x8 - 40 p89 + 40 q89 - x9 - 4 r9 >= -39
 c462: y8 - 40 p89 - 40 q89 + 4 r9 - y9 >= -75
 c463: x8 + 6 r8 - 40 p810 - 40 q810 - x10 <= -1
 c464: - 6 r8 + y8 - 40 p810 + 40 q810 - y10 <= 33
 c465: x8 - 40 p810 + 40 q810 - x10 - 3 r10 >= -39
 c466: y8 - 40 p810 - 40 q810 + 3 r10 - y10 >= -76
 c467: x8 + 6 r8 - 40 p811 - 40 q811 - x11 <= -1
 c468: - 6 r8 + y8 - 40 p811 + 40 q811 - y11 <= 33
 c469: x8 - 40 p811 + 40 q811 - x11 - r11 >= -39
 c470: y8 - 40 p811 - 40 q811 + r11 - y11 >= -78
 c471: x8 + 6 r8 - 40 p812 - 40 q812 - x12 <= -1
 c472: - 6 r8 + y8 - 40 p812 + 40 q812 - y12 <= 33
 c473: x8 - 40 p812 + 40 q812 - x12 - 14 r12 >= -39
 c474: y8 - 40 p812 - 40 q812 + 14 r12 - y12 >= -65
 c475: x8 + 6 r8 - 40 p813 - 40 q813 - x13 <= -1
 c476: - 6 r8 + y8 - 40 p813 + 40 q813 - y13 <= 33
 c477: x8 - 40 p813 + 40 q813 - x13 + r13 >= -38
 c478: y8 - 40 p813 - 40 q813 - r13 - y13 >= -79
 c479: x8 + 6 r8 - 40 p814 - 40 q814 - x14 <= -1
 c480: - 6 r8 + y8 - 40 p814 + 40 q814 - y14 <= 33
 c481: x8 - 40 p814 + 40 q814 - x14 - 14 r14 >= -39
 c482: y8 - 40 p814 - 40 q814 + 14 r14 - y14 >= -65
 c483: x8 + 6 r8 - 40 p815 - 40 q815 - x15 <= -1
 c484: - 6 r8 + y8 - 40 p815 + 40 q815 - y15 <= 33
 c485: x8 - 40 p815 + 40 q815 - x15 - 4 r15 >= -38
 c486: y8 - 40 p815 - 40 q815 + 4 r15 - y15 >= -74
 c487: x8 + 6 r8 - 40 p816 - 40 q816 - x16 <= -1
 c488: - 6 r8 + y8 - 40 p816 + 40 q816 - y16 <= 33
 c489: x8 - 40 p816 + 40 q816 - x16 - 12 r16 >= -39
 c490: y8 - 40 p816 - 40 q816 + 12 r16 - y16 >= -67
 c491: x8 + 6 r8 - 40 p817 - 40 q817 - x17 <= -1
 c492: - 6 r8 + y8 - 40 p817 + 40 q817 - y17 <= 33
 c493: x8 - 40 p817 + 40 q817 - x17 >= -37
 c494: y8 - 40 p817 - 40 q817 - y17 >= -77
 c495: x8 + 6 r8 - 40 p818 - 40 q818 - x18 <= -1
 c496: - 6 r8 + y8 - 40 p818 + 40 q818 - y18 <= 33
 c497: x8 - 40 p818 + 40 q818 - x18 - r18 >= -39
 c498: y8 - 40 p818 - 40 q818 + r18 - y18 >= -78
 c499: x8 + 6 r8 - 40 p819 - 40 q819 - x19 <= -1
 c500: - 6 r8 + y8 - 40 p819 + 40 q819 - y19 <= 33
 c501: x8 - 40 p819 + 40 q819 - x19 - 3 r19 >= -39
 c502: y8 - 40 p819 - 40 q819 + 3 r19 - y19 >= -76
 c503: x9 + 4 r9 - 40 p910 - 40 q910 - x10 <= -1
 c504: - 4 r9 + y9 - 40 p910 + 40 q910 - y10 <= 35
 c505: x9 - 40 p910 + 40 q910 - x10 - 3 r10 >= -39
 c506: y9 - 40 p910 - 40 q910 + 3 r10 - y10 >= -76
 c507: x9 + 4 r9 - 40 p911 - 40 q911 - x11 <= -1
 c508: - 4 r9 + y9 - 40 p911 + 40 q911 - y11 <= 35
 c509: x9 - 40 p911 + 40 q911 - x11 - r11 >= -39
 c510: y9 - 40 p911 - 40 q911 + r11 - y11 >= -78
 c511: x9 + 4 r9 - 40 p912 - 40 q912 - x12 <= -1
 c512: - 4 r9 + y9 - 40 p912 + 40 q912 - y12 <= 35
 c513: x9 - 40 p912 + 40 q912 - x12 - 14 r12 >= -39
 c514: y9 - 40 p912 - 40 q912 + 14 r12 - y12 >= -65
 c515: x9 + 4 r9 - 40 p913 - 40 q913 - x13 <= -1
 c516: - 4 r9 + y9 - 40 p913 + 40 q913 - y13 <= 35
 c517: x9 - 40 p913 + 40 q913 - x13 + r13 >= -38
 c518: y9 - 40 p913 - 40 q913 - r13 - y13 >= -79
 c519: x9 + 4 r9 - 40 p914 - 40 q914 - x14 <= -1
 c520: - 4 r9 + y9 - 40 p914 + 40 q914 - y14 <= 35
 c521: x9 - 40 p914 + 40 q914 - x14 - 14 r14 >= -39
 c522: y9 - 40 p914 - 40 q914 + 14 r14 - y14 >= -65
 c523: x9 + 4 r9 - 40 p915 - 40 q915 - x15 <= -1
 c524: - 4 r9 + y9 - 40 p915 + 40 q915 - y15 <= 35
 c525: x9 - 40 p915 + 40 q915 - x15 - 4 r15 >= -38
 c526: y9 - 40 p915 - 40 q915 + 4 r15 - y15 >= -74
 c527: x9 + 4 r9 - 40 p916 - 40 q916 - x16 <= -1
 c528: - 4 r9 + y9 - 40 p916 + 40 q916 - y16 <= 35
 c529: x9 - 40 p916 + 40 q916 - x16 - 12 r16 >= -39
 c530: y9 - 40 p916 - 40 q916 + 12 r16 - y16 >= -67
 c531: x9 + 4 r9 - 40 p917 - 40 q917 - x17 <= -1
 c532: - 4 r9 + y9 - 40 p917 + 40 q917 - y17 <= 35
 c533: x9 - 40 p917 + 40 q917 - x17 >= -37
 c534: y9 - 40 p917 - 40 q917 - y17 >= -77
 c535: x9 + 4 r9 - 40 p918 - 40 q918 - x18 <= -1
 c536: - 4 r9 + y9 - 40 p918 + 40 q918 - y18 <= 35
 c537: x9 - 40 p918 + 40 q918 - x18 - r18 >= -39
 c538: y9 - 40 p918 - 40 q918 + r18 - y18 >= -78
 c539: x9 + 4 r9 - 40 p919 - 40 q919 - x19 <= -1
 c540: - 4 r9 + y9 - 40 p919 + 40 q919 - y19 <= 35
 c541: x9 - 40 p919 + 40 q919 - x19 - 3 r19 >= -39
 c542: y9 - 40 p919 - 40 q919 + 3 r19 - y19 >= -76
 c543: x10 + 3 r10 - 40 p1011 - 40 q1011 - x11 <= -1
 c544: - 3 r10 + y10 - 40 p1011 + 40 q1011 - y11 <= 36
 c545: x10 - 40 p1011 + 40 q1011 - x11 - r11 >= -39
 c546: y10 - 40 p1011 - 40 q1011 + r11 - y11 >= -78
 c547: x10 + 3 r10 - 40 p1012 - 40 q1012 - x12 <= -1
 c548: - 3 r10 + y10 - 40 p1012 + 40 q1012 - y12 <= 36
 c549: x10 - 40 p1012 + 40 q1012 - x12 - 14 r12 >= -39
 c550: y10 - 40 p1012 - 40 q1012 + 14 r12 - y12 >= -65
 c551: x10 + 3 r10 - 40 p1013 - 40 q1013 - x13 <= -1
 c552: - 3 r10 + y10 - 40 p1013 + 40 q1013 - y13 <= 36
 c553: x10 - 40 p1013 + 40 q1013 - x13 + r13 >= -38
 c554: y10 - 40 p1013 - 40 q1013 - r13 - y13 >= -79
 c555: x10 + 3 r10 - 40 p1014 - 40 q1014 - x14 <= -1
 c556: - 3 r10 + y10 - 40 p1014 + 40 q1014 - y14 <= 36
 c557: x10 - 40 p1014 + 40 q1014 - x14 - 14 r14 >= -39
 c558: y10 - 40 p1014 - 40 q1014 + 14 r14 - y14 >= -65
 c559: x10 + 3 r10 - 40 p1015 - 40 q1015 - x15 <= -1
 c560: - 3 r10 + y10 - 40 p1015 + 40 q1015 - y15 <= 36
 c561: x10 - 40 p1015 + 40 q1015 - x15 - 4 r15 >= -38
 c562: y10 - 40 p1015 - 40 q1015 + 4 r15 - y15 >= -74
 c563: x10 + 3 r10 - 40 p1016 - 40 q1016 - x16 <= -1
 c564: - 3 r10 + y10 - 40 p1016 + 40 q1016 - y16 <= 36
 c565: x10 - 40 p1016 + 40 q1016 - x16 - 12 r16 >= -39
 c566: y10 - 40 p1016 - 40 q1016 + 12 r16 - y16 >= -67
 c567: x10 + 3 r10 - 40 p1017 - 40 q1017 - x17 <= -1
 c568: - 3 r10 + y10 - 40 p1017 + 40 q1017 - y17 <= 36
 c569: x10 - 40 p1017 + 40 q1017 - x17 >= -37
 c570: y10 - 40 p1017 - 40 q1017 - y17 >= -77
 c571: x10 + 3 r10 - 40 p1018 - 40 q1018 - x18 <= -1
 c572: - 3 r10 + y10 - 40 p1018 + 40 q1018 - y18 <= 36
 c573: x10 - 40 p1018 + 40 q1018 - x18 - r18 >= -39
 c574: y10 - 40 p1018 - 40 q1018 + r18 - y18 >= -78
 c575: x10 + 3 r10 - 40 p1019 - 40 q1019 - x19 <= -1
 c576: - 3 r10 + y10 - 40 p1019 + 40 q1019 - y19 <= 36
 c577: x10 - 40 p1019 + 40 q1019 - x19 - 3 r19 >= -39
 c578: y10 - 40 p1019 - 40 q1019 + 3 r19 - y19 >= -76
 c579: x11 + r11 - 40 p1112 - 40 q1112 - x12 <= -1
 c580: - r11 + y11 - 40 p1112 + 40 q1112 - y12 <= 38
 c581: x11 - 40 p1112 + 40 q1112 - x12 - 14 r12 >= -39
 c582: y11 - 40 p1112 - 40 q1112 + 14 r12 - y12 >= -65
 c583: x11 + r11 - 40 p1113 - 40 q1113 - x13 <= -1
 c584: - r11 + y11 - 40 p1113 + 40 q1113 - y13 <= 38
 c585: x11 - 40 p1113 + 40 q1113 - x13 + r13 >= -38
 c586: y11 - 40 p1113 - 40 q1113 - r13 - y13 >= -79
 c587: x11 + r11 - 40 p1114 - 40 q1114 - x14 <= -1
 c588: - r11 + y11 - 40 p1114 + 40 q1114 - y14 <= 38
 c589: x11 - 40 p1114 + 40 q1114 - x14 - 14 r14 >= -39
 c590: y11 - 40 p1114 - 40 q1114 + 14 r14 - y14 >= -65
 c591: x11 + r11 - 40 p1115 - 40 q1115 - x15 <= -1
 c592: - r11 + y11 - 40 p1115 + 40 q1115 - y15 <= 38
 c593: x11 - 40 p1115 + 40 q1115 - x15 - 4 r15 >= -38
 c594: y11 - 40 p1115 - 40 q1115 + 4 r15 - y15 >= -74
 c595: x11 + r11 - 40 p1116 - 40 q1116 - x16 <= -1
 c596: - r11 + y11 - 40 p1116 + 40 q1116 - y16 <= 38
 c597: x11 - 40 p1116 + 40 q1116 - x16 - 12 r16 >= -39
 c598: y11 - 40 p1116 - 40 q1116 + 12 r16 - y16 >= -67
 c599: x11 + r11 - 40 p1117 - 40 q1117 - x17 <= -1
 c600: - r11 + y11 - 40 p1117 + 40 q1117 - y17 <= 38
 c601: x11 - 40 p1117 + 40 q1117 - x17 >= -37
 c602: y11 - 40 p1117 - 40 q1117 - y17 >= -77
 c603: x11 + r11 - 40 p1118 - 40 q1118 - x18 <= -1
 c604: - r11 + y11 - 40 p1118 + 40 q1118 - y18 <= 38
 c605: x11 - 40 p1118 + 40 q1118 - x18 - r18 >= -39
 c606: y11 - 40 p1118 - 40 q1118 + r18 - y18 >= -78
 c607: x11 + r11 - 40 p1119 - 40 q1119 - x19 <= -1
 c608: - r11 + y11 - 40 p1119 + 40 q1119 - y19 <= 38
 c609: x11 - 40 p1119 + 40 q1119 - x19 - 3 r19 >= -39
 c610: y11 - 40 p1119 - 40 q1119 + 3 r19 - y19 >= -76
 c611: x12 + 14 r12 - 40 p1213 - 40 q1213 - x13 <= -1
 c612: - 14 r12 + y12 - 40 p1213 + 40 q1213 - y13 <= 25
 c613: x12 - 40 p1213 + 40 q1213 - x13 + r13 >= -38
 c614: y12 - 40 p1213 - 40 q1213 - r13 - y13 >= -79
 c615: x12 + 14 r12 - 40 p1214 - 40 q1214 - x14 <= -1
 c616: - 14 r12 + y12 - 40 p1214 + 40 q1214 - y14 <= 25
 c617: x12 - 40 p1214 + 40 q1214 - x14 - 14 r14 >= -39
 c618: y12 - 40 p1214 - 40 q1214 + 14 r14 - y14 >= -65
 c619: x12 + 14 r12 - 40 p1215 - 40 q1215 - x15 <= -1
 c620: - 14 r12 + y12 - 40 p1215 + 40 q1215 - y15 <= 25
 c621: x12 - 40 p1215 + 40 q1215 - x15 - 4 r15 >= -38
 c622: y12 - 40 p1215 - 40 q1215 + 4 r15 - y15 >= -74
 c623: x12 + 14 r12 - 40 p1216 - 40 q1216 - x16 <= -1
 c624: - 14 r12 + y12 - 40 p1216 + 40 q1216 - y16 <= 25
 c625: x12 - 40 p1216 + 40 q1216 - x16 - 12 r16 >= -39
 c626: y12 - 40 p1216 - 40 q1216 + 12 r16 - y16 >= -67
 c627: x12 + 14 r12 - 40 p1217 - 40 q1217 - x17 <= -1
 c628: - 14 r12 + y12 - 40 p1217 + 40 q1217 - y17 <= 25
 c629: x12 - 40 p1217 + 40 q1217 - x17 >= -37
 c630: y12 - 40 p1217 - 40 q1217 - y17 >= -77
 c631: x12 + 14 r12 - 40 p1218 - 40 q1218 - x18 <= -1
 c632: - 14 r12 + y12 - 40 p1218 + 40 q1218 - y18 <= 25
 c633: x12 - 40 p1218 + 40 q1218 - x18 - r18 >= -39
 c634: y12 - 40 p1218 - 40 q1218 + r18 - y18 >= -78
 c635: x12 + 14 r12 - 40 p1219 - 40 q1219 - x19 <= -1
 c636: - 14 r12 + y12 - 40 p1219 + 40 q1219 - y19 <= 25
 c637: x12 - 40 p1219 + 40 q1219 - x19 - 3 r19 >= -39
 c638: y12 - 40 p1219 - 40 q1219 + 3 r19 - y19 >= -76
 c639: x13 - r13 - 40 p1314 - 40 q1314 - x14 <= -2
 c640: r13 + y13 - 40 p1314 + 40 q1314 - y14 <= 39
 c641: x13 - 40 p1314 + 40 q1314 - x14 - 14 r14 >= -39
 c642: y13 - 40 p1314 - 40 q1314 + 14 r14 - y14 >= -65
 c643: x13 - r13 - 40 p1315 - 40 q1315 - x15 <= -2
 c644: r13 + y13 - 40 p1315 + 40 q1315 - y15 <= 39
 c645: x13 - 40 p1315 + 40 q1315 - x15 - 4 r15 >= -38
 c646: y13 - 40 p1315 - 40 q1315 + 4 r15 - y15 >= -74
 c647: x13 - r13 - 40 p1316 - 40 q1316 - x16 <= -2
 c648: r13 + y13 - 40 p1316 + 40 q1316 - y16 <= 39
 c649: x13 - 40 p1316 + 40 q1316 - x16 - 12 r16 >= -39
 c650: y13 - 40 p1316 - 40 q1316 + 12 r16 - y16 >= -67
 c651: x13 - r13 - 40 p1317 - 40 q1317 - x17 <= -2
 c652: r13 + y13 - 40 p1317 + 40 q1317 - y17 <= 39
 c653: x13 - 40 p1317 + 40 q1317 - x17 >= -37
 c654: y13 - 40 p1317 - 40 q1317 - y17 >= -77
 c655: x13 - r13 - 40 p1318 - 40 q1318 - x18 <= -2
 c656: r13 + y13 - 40 p1318 + 40 q1318 - y18 <= 39
 c657: x13 - 40 p1318 + 40 q1318 - x18 - r18 >= -39
 c658: y13 - 40 p1318 - 40 q1318 + r18 - y18 >= -78
 c659: x13 - r13 - 40 p1319 - 40 q1319 - x19 <= -2
 c660: r13 + y13 - 40 p1319 + 40 q1319 - y19 <= 39
 c661: x13 - 40 p1319 + 40 q1319 - x19 - 3 r19 >= -39
 c662: y13 - 40 p1319 - 40 q1319 + 3 r19 - y19 >= -76
 c663: x14 + 14 r14 - 40 p1415 - 40 q1415 - x15 <= -1
 c664: - 14 r14 + y14 - 40 p1415 + 40 q1415 - y15 <= 25
 c665: x14 - 40 p1415 + 40 q1415 - x15 - 4 r15 >= -38
 c666: y14 - 40 p1415 - 40 q1415 + 4 r15 - y15 >= -74
 c667: x14 + 14 r14 - 40 p1416 - 40 q1416 - x16 <= -1
 c668: - 14 r14 + y14 - 40 p1416 + 40 q1416 - y16 <= 25
 c669: x14 - 40 p1416 + 40 q1416 - x16 - 12 r16 >= -39
 c670: y14 - 40 p1416 - 40 q1416 + 12 r16 - y16 >= -67
 c671: x14 + 14 r14 - 40 p1417 - 40 q1417 - x17 <= -1
 c672: - 14 r14 + y14 - 40 p1417 + 40 q1417 - y17 <= 25
 c673: x14 - 40 p1417 + 40 q1417 - x17 >= -37
 c674: y14 - 40 p1417 - 40 q1417 - y17 >= -77
 c675: x14 + 14 r14 - 40 p1418 - 40 q1418 - x18 <= -1
 c676: - 14 r14 + y14 - 40 p1418 + 40 q1418 - y18 <= 25
 c677: x14 - 40 p1418 + 40 q1418 - x18 - r18 >= -39
 c678: y14 - 40 p1418 - 40 q1418 + r18 - y18 >= -78
 c679: x14 + 14 r14 - 40 p1419 - 40 q1419 - x19 <= -1
 c680: - 14 r14 + y14 - 40 p1419 + 40 q1419 - y19 <= 25
 c681: x14 - 40 p1419 + 40 q1419 - x19 - 3 r19 >= -39
 c682: y14 - 40 p1419 - 40 q1419 + 3 r19 - y19 >= -76
 c683: x15 + 4 r15 - 40 p1516 - 40 q1516 - x16 <= -2
 c684: - 4 r15 + y15 - 40 p1516 + 40 q1516 - y16 <= 34
 c685: x15 - 40 p1516 + 40 q1516 - x16 - 12 r16 >= -39
 c686: y15 - 40 p1516 - 40 q1516 + 12 r16 - y16 >= -67
 c687: x15 + 4 r15 - 40 p1517 - 40 q1517 - x17 <= -2
 c688: - 4 r15 + y15 - 40 p1517 + 40 q1517 - y17 <= 34
 c689: x15 - 40 p1517 + 40 q1517 - x17 >= -37
 c690: y15 - 40 p1517 - 40 q1517 - y17 >= -77
 c691: x15 + 4 r15 - 40 p1518 - 40 q1518 - x18 <= -2
 c692: - 4 r15 + y15 - 40 p1518 + 40 q1518 - y18 <= 34
 c693: x15 - 40 p1518 + 40 q1518 - x18 - r18 >= -39
 c694: y15 - 40 p1518 - 40 q1518 + r18 - y18 >= -78
 c695: x15 + 4 r15 - 40 p1519 - 40 q1519 - x19 <= -2
 c696: - 4 r15 + y15 - 40 p1519 + 40 q1519 - y19 <= 34
 c697: x15 - 40 p1519 + 40 q1519 - x19 - 3 r19 >= -39
 c698: y15 - 40 p1519 - 40 q1519 + 3 r19 - y19 >= -76
 c699: x16 + 12 r16 - 40 p1617 - 40 q1617 - x17 <= -1
 c700: - 12 r16 + y16 - 40 p1617 + 40 q1617 - y17 <= 27
 c701: x16 - 40 p1617 + 40 q1617 - x17 >= -37
 c702: y16 - 40 p1617 - 40 q1617 - y17 >= -77
 c703: x16 + 12 r16 - 40 p1618 - 40 q1618 - x18 <= -1
 c704: - 12 r16 + y16 - 40 p1618 + 40 q1618 - y18 <= 27
 c705: x16 - 40 p1618 + 40 q1618 - x18 - r18 >= -39
 c706: y16 - 40 p1618 - 40 q1618 + r18 - y18 >= -78
 c707: x16 + 12 r16 - 40 p1619 - 40 q1619 - x19 <= -1
 c708: - 12 r16 + y16 - 40 p1619 + 40 q1619 - y19 <= 27
 c709: x16 - 40 p1619 + 40 q1619 - x19 - 3 r19 >= -39
 c710: y16 - 40 p1619 - 40 q1619 + 3 r19 - y19 >= -76
 c711: x17 - 40 p1718 - 40 q1718 - x18 <= -3
 c712: y17 - 40 p1718 + 40 q1718 - y18 <= 37
 c713: x17 - 40 p1718 + 40 q1718 - x18 - r18 >= -39
 c714: y17 - 40 p1718 - 40 q1718 + r18 - y18 >= -78
 c715: x17 - 40 p1719 - 40 q1719 - x19 <= -3
 c716: y17 - 40 p1719 + 40 q1719 - y19 <= 37
 c717: x17 - 40 p1719 + 40 q1719 - x19 - 3 r19 >= -39
 c718: y17 - 40 p1719 - 40 q1719 + 3 r19 - y19 >= -76
 c719: x18 + r18 - 40 p1819 - 40 q1819 - x19 <= -1
 c720: - r18 + y18 - 40 p1819 + 40 q1819 - y19 <= 38
 c721: x18 - 40 p1819 + 40 q1819 - x19 - 3 r19 >= -39
 c722: y18 - 40 p1819 - 40 q1819 + 3 r19 - y19 >= -76
Bounds
 r1 <= 1
 r2 <= 1
 r3 <= 1
 r4 <= 1
 r5 <= 1
 r6 <= 1
 r7 <= 1
 r8 <= 1
 r9 <= 1
 r10 <= 1
 r11 <= 1
 r12 <= 1
 r13 <= 1
 r14 <= 1
 r15 <= 1
 r16 <= 1
 r17 <= 1
 r18 <= 1
 r19 <= 1
Binaries
 p12 q12 p13 q13 p14 q14 p15 q15 p16 q16 p17 q17 p18 q18 p19 q19 p110 q110
 p111 q111 p112 q112 p113 q113 p114 q114 p115 q115 p116 q116 p117 q117 p118
 q118 p119 q119 p23 q23 p24 q24 p25 q25 p26 q26 p27 q27 p28 q28 p29 q29
 p210 q210 p211 q211 p212 q212 p213 q213 p214 q214 p215 q215 p216 q216 p217
 q217 p218 q218 p219 q219 p34 q34 p35 q35 p36 q36 p37 q37 p38 q38 p39 q39
 p310 q310 p311 q311 p312 q312 p313 q313 p314 q314 p315 q315 p316 q316 p317
 q317 p318 q318 p319 q319 p45 q45 p46 q46 p47 q47 p48 q48 p49 q49 p410 q410
 p411 q411 p412 q412 p413 q413 p414 q414 p415 q415 p416 q416 p417 q417 p418
 q418 p419 q419 p56 q56 p57 q57 p58 q58 p59 q59 p510 q510 p511 q511 p512
 q512 p513 q513 p514 q514 p515 q515 p516 q516 p517 q517 p518 q518 p519 q519
 p67 q67 p68 q68 p69 q69 p610 q610 p611 q611 p612 q612 p613 q613 p614 q614
 p615 q615 p616 q616 p617 q617 p618 q618 p619 q619 p78 q78 p79 q79 p710
 q710 p711 q711 p712 q712 p713 q713 p714 q714 p715 q715 p716 q716 p717 q717
 p718 q718 p719 q719 p89 q89 p810 q810 p811 q811 p812 q812 p813 q813 p814
 q814 p815 q815 p816 q816 p817 q817 p818 q818 p819 q819 p910 q910 p911 q911
 p912 q912 p913 q913 p914 q914 p915 q915 p916 q916 p917 q917 p918 q918 p919
 q919 p1011 q1011 p1012 q1012 p1013 q1013 p1014 q1014 p1015 q1015 p1016
 q1016 p1017 q1017 p1018 q1018 p1019 q1019 p1112 q1112 p1113 q1113 p1114
 q1114 p1115 q1115 p1116 q1116 p1117 q1117 p1118 q1118 p1119 q1119 p1213
 q1213 p1214 q1214 p1215 q1215 p1216 q1216 p1217 q1217 p1218 q1218 p1219
 q1219 p1314 q1314 p1315 q1315 p1316 q1316 p1317 q1317 p1318 q1318 p1319
 q1319 p1415 q1415 p1416 q1416 p1417 q1417 p1418 q1418 p1419 q1419 p1516
 q1516 p1517 q1517 p1518 q1518 p1519 q1519 p1617 q1617 p1618 q1618 p1619
 q1619 p1718 q1718 p1719 q1719 p1819 q1819
Generals
 x1 r1 y1 x2 r2 y2 x3 r3 y3 x4 r4 y4 x5 r5 y5 x6 r6 y6 x7 r7 y7 x8 r8 y8 x9
 r9 y9 x10 r10 y10 x11 r11 y11 x12 r12 y12 x13 r13 y13 x14 r14 y14 x15 r15
 y15 x16 r16 y16 x17 r17 y17 x18 r18 y18 x19 r19 y19
End
